Route #1: 1 13 30 29 33 18 22 21 27 24 1 1 
Route #2: 1 11 25 19 6 23 8 14 9 5 1 
Route #3: 1 32 17 31 12 28 34 1 
Route #4: 1 16 10 7 15 20 26 1 
Route #5: 1 3 4 35 2 1 

Cost 1101.91
Time 0.1997


 * Another infos *

 Iterations: 36 Time: 0.1997 sec - 0.0033 min - 0.0001 horas
0.0000 h 0.0033 min
Problem dimension: 36
